
header line 1 
header line 2 
#reg1=  0  #reg2=  0  #fixed=   795  sym=  1
 PR1=       0.250     PR2=       0.250   DEPTH=       6.000
  E1=      8.000e+05   E2=      8.000e+05
XSYM=       .000     YSYM=       .000
FRIC=          0.400
S1DR=         19.000 S1DP=         -0.010 S1IN=        100.000 S1GD=          0.000
S2DR=         89.990 S2DP=         89.990 S2IN=         30.000 S2GD=          0.000
S3DR=        109.000 S3DP=         -0.010 S3IN=          0.000 S3GD=          0.000


  #   X-start    Y-start     X-fin      Y-fin   Kode  rt.lat    reverse   dip angle     top      bot
xxx xxxxxxxxxx xxxxxxxxxx xxxxxxxxxx xxxxxxxxxx xxx xxxxxxxxxx xxxxxxxxxx xxxxxxxxxx xxxxxxxxxx xxxxxxxxxx
1    14.6147    13.2872    22.3391    18.0047    100    0.0003    0    90    0.0    17.172    Fault 1
2    14.6147    13.2872    22.3391    18.0047    100    0.0001    0    90    0.0    17.172    Fault 1
3    14.6147    13.2872    22.3391    18.0047    100    0.0002    0    90    0.0    17.172    Fault 1
4    14.6147    13.2872    22.3391    18.0047    100    0.0000    0    90    0.0    17.172    Fault 1
5    14.6147    13.2872    22.3391    18.0047    100    0.0001    0    90    0.0    17.172    Fault 1
6    14.6147    13.2872    22.3391    18.0047    100    0.0006    0    90    0.0    17.172    Fault 1
7    14.6147    13.2872    22.3391    18.0047    100    0.0000    0    90    0.0    17.172    Fault 1
8    14.6147    13.2872    22.3391    18.0047    100    0.0000    0    90    0.0    17.172    Fault 1
9    14.6147    13.2872    22.3391    18.0047    100    0.0000    0    90    0.0    17.172    Fault 1
10    14.6147    13.2872    22.3391    18.0047    100    0.0001    0    90    0.0    17.172    Fault 1
11    14.6147    13.2872    22.3391    18.0047    100    0.0002    0    90    0.0    17.172    Fault 1
12    14.6147    13.2872    22.3391    18.0047    100    0.0001    0    90    0.0    17.172    Fault 1
13    14.6147    13.2872    22.3391    18.0047    100    0.0001    0    90    0.0    17.172    Fault 1
14    14.6147    13.2872    22.3391    18.0047    100    0.0004    0    90    0.0    17.172    Fault 1
15    14.6147    13.2872    22.3391    18.0047    100    0.0001    0    90    0.0    17.172    Fault 1
16    14.6147    13.2872    22.3391    18.0047    100    0.0004    0    90    0.0    17.172    Fault 1
17    14.6147    13.2872    22.3391    18.0047    100    0.0001    0    90    0.0    17.172    Fault 1
18    14.6147    13.2872    22.3391    18.0047    100    0.0002    0    90    0.0    17.172    Fault 1
19    14.6147    13.2872    22.3391    18.0047    100    0.0004    0    90    0.0    17.172    Fault 1
20    14.6147    13.2872    22.3391    18.0047    100    0.0006    0    90    0.0    17.172    Fault 1
21    14.6147    13.2872    22.3391    18.0047    100    0.0009    0    90    0.0    17.172    Fault 1
22    14.6147    13.2872    22.3391    18.0047    100    0.0001    0    90    0.0    17.172    Fault 1
23    14.6147    13.2872    22.3391    18.0047    100    0.0001    0    90    0.0    17.172    Fault 1
24    14.6147    13.2872    22.3391    18.0047    100    0.0004    0    90    0.0    17.172    Fault 1
25    14.6147    13.2872    22.3391    18.0047    100    0.0000    0    90    0.0    17.172    Fault 1
26    14.6147    13.2872    22.3391    18.0047    100    0.0000    0    90    0.0    17.172    Fault 1
27    14.6147    13.2872    22.3391    18.0047    100    0.0001    0    90    0.0    17.172    Fault 1
28    14.6147    13.2872    22.3391    18.0047    100    0.0000    0    90    0.0    17.172    Fault 1
29    14.6147    13.2872    22.3391    18.0047    100    0.0000    0    90    0.0    17.172    Fault 1
30    14.6147    13.2872    22.3391    18.0047    100    0.0000    0    90    0.0    17.172    Fault 1
31    14.6147    13.2872    22.3391    18.0047    100    0.0002    0    90    0.0    17.172    Fault 1
32    14.6147    13.2872    22.3391    18.0047    100    0.0000    0    90    0.0    17.172    Fault 1
33    14.6147    13.2872    22.3391    18.0047    100    0.0001    0    90    0.0    17.172    Fault 1
34    14.6147    13.2872    22.3391    18.0047    100    0.0004    0    90    0.0    17.172    Fault 1
35    14.6147    13.2872    22.3391    18.0047    100    0.0003    0    90    0.0    17.172    Fault 1
36    14.6147    13.2872    22.3391    18.0047    100    0.0001    0    90    0.0    17.172    Fault 1
37    14.6147    13.2872    22.3391    18.0047    100    0.0001    0    90    0.0    17.172    Fault 1
38    14.6147    13.2872    22.3391    18.0047    100    0.0002    0    90    0.0    17.172    Fault 1
39    14.6147    13.2872    22.3391    18.0047    100    0.0000    0    90    0.0    17.172    Fault 1
40    14.6147    13.2872    22.3391    18.0047    100    0.0001    0    90    0.0    17.172    Fault 1
41    14.6147    13.2872    22.3391    18.0047    100    0.0002    0    90    0.0    17.172    Fault 1
42    14.6147    13.2872    22.3391    18.0047    100    0.0003    0    90    0.0    17.172    Fault 1
43    14.6147    13.2872    22.3391    18.0047    100    0.0001    0    90    0.0    17.172    Fault 1
44    14.6147    13.2872    22.3391    18.0047    100    0.0000    0    90    0.0    17.172    Fault 1
45    14.6147    13.2872    22.3391    18.0047    100    0.0001    0    90    0.0    17.172    Fault 1
46    14.6147    13.2872    22.3391    18.0047    100    0.0003    0    90    0.0    17.172    Fault 1
47    14.6147    13.2872    22.3391    18.0047    100    0.0003    0    90    0.0    17.172    Fault 1
48    14.6147    13.2872    22.3391    18.0047    100    0.0003    0    90    0.0    17.172    Fault 1
49    14.6147    13.2872    22.3391    18.0047    100    0.0001    0    90    0.0    17.172    Fault 1
50    14.6147    13.2872    22.3391    18.0047    100    0.0003    0    90    0.0    17.172    Fault 1
51    14.6147    13.2872    22.3391    18.0047    100    0.0059    0    90    0.0    17.172    Fault 1
52    14.6147    13.2872    22.3391    18.0047    100    0.0001    0    90    0.0    17.172    Fault 1
53    14.6147    13.2872    22.3391    18.0047    100    0.0004    0    90    0.0    17.172    Fault 1
54    14.6147    13.2872    22.3391    18.0047    100    0.0001    0    90    0.0    17.172    Fault 1
55    14.6147    13.2872    22.3391    18.0047    100    0.0001    0    90    0.0    17.172    Fault 1
56    14.6147    13.2872    22.3391    18.0047    100    0.0001    0    90    0.0    17.172    Fault 1
57    14.6147    13.2872    22.3391    18.0047    100    0.0003    0    90    0.0    17.172    Fault 1
58    14.6147    13.2872    22.3391    18.0047    100    0.0000    0    90    0.0    17.172    Fault 1
59    14.6147    13.2872    22.3391    18.0047    100    0.0002    0    90    0.0    17.172    Fault 1
60    14.6147    13.2872    22.3391    18.0047    100    0.0001    0    90    0.0    17.172    Fault 1
61    14.6147    13.2872    22.3391    18.0047    100    0.0008    0    90    0.0    17.172    Fault 1
62    14.6147    13.2872    22.3391    18.0047    100    0.0002    0    90    0.0    17.172    Fault 1
63    14.6147    13.2872    22.3391    18.0047    100    0.0000    0    90    0.0    17.172    Fault 1
64    14.6147    13.2872    22.3391    18.0047    100    0.0004    0    90    0.0    17.172    Fault 1
65    14.6147    13.2872    22.3391    18.0047    100    0.0003    0    90    0.0    17.172    Fault 1
66    14.6147    13.2872    22.3391    18.0047    100    0.0000    0    90    0.0    17.172    Fault 1
67    14.6147    13.2872    22.3391    18.0047    100    0.0003    0    90    0.0    17.172    Fault 1
68    14.6147    13.2872    22.3391    18.0047    100    0.0002    0    90    0.0    17.172    Fault 1
69    14.6147    13.2872    22.3391    18.0047    100    0.0002    0    90    0.0    17.172    Fault 1
70    14.6147    13.2872    22.3391    18.0047    100    0.0002    0    90    0.0    17.172    Fault 1
71    14.6147    13.2872    22.3391    18.0047    100    0.0002    0    90    0.0    17.172    Fault 1
72    14.6147    13.2872    22.3391    18.0047    100    0.0050    0    90    0.0    17.172    Fault 1
73    14.6147    13.2872    22.3391    18.0047    100    0.0001    0    90    0.0    17.172    Fault 1
74    14.6147    13.2872    22.3391    18.0047    100    0.0001    0    90    0.0    17.172    Fault 1
75    14.6147    13.2872    22.3391    18.0047    100    0.0002    0    90    0.0    17.172    Fault 1
76    14.6147    13.2872    22.3391    18.0047    100    0.0001    0    90    0.0    17.172    Fault 1
77    14.6147    13.2872    22.3391    18.0047    100    0.0002    0    90    0.0    17.172    Fault 1
78    14.6147    13.2872    22.3391    18.0047    100    0.0000    0    90    0.0    17.172    Fault 1
79    14.6147    13.2872    22.3391    18.0047    100    0.0001    0    90    0.0    17.172    Fault 1
80    14.6147    13.2872    22.3391    18.0047    100    0.0000    0    90    0.0    17.172    Fault 1
81    14.6147    13.2872    22.3391    18.0047    100    0.0001    0    90    0.0    17.172    Fault 1
82    14.6147    13.2872    22.3391    18.0047    100    0.0001    0    90    0.0    17.172    Fault 1
83    14.6147    13.2872    22.3391    18.0047    100    0.0007    0    90    0.0    17.172    Fault 1
84    14.6147    13.2872    22.3391    18.0047    100    0.0003    0    90    0.0    17.172    Fault 1
85    14.6147    13.2872    22.3391    18.0047    100    0.0001    0    90    0.0    17.172    Fault 1
86    14.6147    13.2872    22.3391    18.0047    100    0.0005    0    90    0.0    17.172    Fault 1
87    14.6147    13.2872    22.3391    18.0047    100    0.0003    0    90    0.0    17.172    Fault 1
88    14.6147    13.2872    22.3391    18.0047    100    0.0001    0    90    0.0    17.172    Fault 1
89    14.6147    13.2872    22.3391    18.0047    100    0.0001    0    90    0.0    17.172    Fault 1
90    14.6147    13.2872    22.3391    18.0047    100    0.0005    0    90    0.0    17.172    Fault 1
91    14.6147    13.2872    22.3391    18.0047    100    0.0001    0    90    0.0    17.172    Fault 1
92    14.6147    13.2872    22.3391    18.0047    100    0.0001    0    90    0.0    17.172    Fault 1
93    14.6147    13.2872    22.3391    18.0047    100    0.0001    0    90    0.0    17.172    Fault 1
94    14.6147    13.2872    22.3391    18.0047    100    0.0005    0    90    0.0    17.172    Fault 1
95    14.6147    13.2872    22.3391    18.0047    100    0.0001    0    90    0.0    17.172    Fault 1
96    14.6147    13.2872    22.3391    18.0047    100    0.0001    0    90    0.0    17.172    Fault 1
97    14.6147    13.2872    22.3391    18.0047    100    0.0001    0    90    0.0    17.172    Fault 1
98    14.6147    13.2872    22.3391    18.0047    100    0.0001    0    90    0.0    17.172    Fault 1
99    14.6147    13.2872    22.3391    18.0047    100    0.0001    0    90    0.0    17.172    Fault 1
100    14.6147    13.2872    22.3391    18.0047    100    0.0001    0    90    0.0    17.172    Fault 1
101    14.6147    13.2872    22.3391    18.0047    100    0.0001    0    90    0.0    17.172    Fault 1
102    14.6147    13.2872    22.3391    18.0047    100    0.0001    0    90    0.0    17.172    Fault 1
103    14.6147    13.2872    22.3391    18.0047    100    0.0000    0    90    0.0    17.172    Fault 1
104    14.6147    13.2872    22.3391    18.0047    100    0.0001    0    90    0.0    17.172    Fault 1
105    14.6147    13.2872    22.3391    18.0047    100    0.0004    0    90    0.0    17.172    Fault 1
106    14.6147    13.2872    22.3391    18.0047    100    0.0001    0    90    0.0    17.172    Fault 1
107    14.6147    13.2872    22.3391    18.0047    100    0.0001    0    90    0.0    17.172    Fault 1
108    14.6147    13.2872    22.3391    18.0047    100    0.0001    0    90    0.0    17.172    Fault 1
109    14.6147    13.2872    22.3391    18.0047    100    0.0001    0    90    0.0    17.172    Fault 1
110    14.6147    13.2872    22.3391    18.0047    100    0.0001    0    90    0.0    17.172    Fault 1
111    14.6147    13.2872    22.3391    18.0047    100    0.0001    0    90    0.0    17.172    Fault 1
112    14.6147    13.2872    22.3391    18.0047    100    0.0001    0    90    0.0    17.172    Fault 1
113    14.6147    13.2872    22.3391    18.0047    100    0.0003    0    90    0.0    17.172    Fault 1
114    14.6147    13.2872    22.3391    18.0047    100    0.0002    0    90    0.0    17.172    Fault 1
115    14.6147    13.2872    22.3391    18.0047    100    0.0003    0    90    0.0    17.172    Fault 1
116    14.6147    13.2872    22.3391    18.0047    100    0.0002    0    90    0.0    17.172    Fault 1
117    14.6147    13.2872    22.3391    18.0047    100    0.0001    0    90    0.0    17.172    Fault 1
118    14.6147    13.2872    22.3391    18.0047    100    0.0001    0    90    0.0    17.172    Fault 1
119    14.6147    13.2872    22.3391    18.0047    100    0.0005    0    90    0.0    17.172    Fault 1
120    14.6147    13.2872    22.3391    18.0047    100    0.0001    0    90    0.0    17.172    Fault 1
121    14.6147    13.2872    22.3391    18.0047    100    0.0003    0    90    0.0    17.172    Fault 1
122    14.6147    13.2872    22.3391    18.0047    100    0.0004    0    90    0.0    17.172    Fault 1
123    14.6147    13.2872    22.3391    18.0047    100    0.0003    0    90    0.0    17.172    Fault 1
124    14.6147    13.2872    22.3391    18.0047    100    0.0001    0    90    0.0    17.172    Fault 1
125    14.6147    13.2872    22.3391    18.0047    100    0.0003    0    90    0.0    17.172    Fault 1
126    14.6147    13.2872    22.3391    18.0047    100    0.0003    0    90    0.0    17.172    Fault 1
127    14.6147    13.2872    22.3391    18.0047    100    0.0001    0    90    0.0    17.172    Fault 1
128    14.6147    13.2872    22.3391    18.0047    100    0.0003    0    90    0.0    17.172    Fault 1
129    14.6147    13.2872    22.3391    18.0047    100    0.0001    0    90    0.0    17.172    Fault 1
130    14.6147    13.2872    22.3391    18.0047    100    0.0000    0    90    0.0    17.172    Fault 1
131    14.6147    13.2872    22.3391    18.0047    100    0.0001    0    90    0.0    17.172    Fault 1
132    14.6147    13.2872    22.3391    18.0047    100    0.0001    0    90    0.0    17.172    Fault 1
133    14.6147    13.2872    22.3391    18.0047    100    0.0001    0    90    0.0    17.172    Fault 1
134    14.6147    13.2872    22.3391    18.0047    100    0.0001    0    90    0.0    17.172    Fault 1
135    14.6147    13.2872    22.3391    18.0047    100    0.0001    0    90    0.0    17.172    Fault 1
136    14.6147    13.2872    22.3391    18.0047    100    0.0001    0    90    0.0    17.172    Fault 1
137    14.6147    13.2872    22.3391    18.0047    100    0.0006    0    90    0.0    17.172    Fault 1
138    14.6147    13.2872    22.3391    18.0047    100    0.0001    0    90    0.0    17.172    Fault 1
139    14.6147    13.2872    22.3391    18.0047    100    0.0000    0    90    0.0    17.172    Fault 1
140    14.6147    13.2872    22.3391    18.0047    100    0.0001    0    90    0.0    17.172    Fault 1
141    14.6147    13.2872    22.3391    18.0047    100    0.0002    0    90    0.0    17.172    Fault 1
142    14.6147    13.2872    22.3391    18.0047    100    0.0004    0    90    0.0    17.172    Fault 1
143    14.6147    13.2872    22.3391    18.0047    100    0.0001    0    90    0.0    17.172    Fault 1
144    14.6147    13.2872    22.3391    18.0047    100    0.0001    0    90    0.0    17.172    Fault 1
145    14.6147    13.2872    22.3391    18.0047    100    0.0003    0    90    0.0    17.172    Fault 1
146    14.6147    13.2872    22.3391    18.0047    100    0.0001    0    90    0.0    17.172    Fault 1
147    14.6147    13.2872    22.3391    18.0047    100    0.0000    0    90    0.0    17.172    Fault 1
148    14.6147    13.2872    22.3391    18.0047    100    0.0001    0    90    0.0    17.172    Fault 1
149    14.6147    13.2872    22.3391    18.0047    100    0.0001    0    90    0.0    17.172    Fault 1
150    14.6147    13.2872    22.3391    18.0047    100    0.0004    0    90    0.0    17.172    Fault 1
151    14.6147    13.2872    22.3391    18.0047    100    0.0001    0    90    0.0    17.172    Fault 1
152    14.6147    13.2872    22.3391    18.0047    100    0.0001    0    90    0.0    17.172    Fault 1
153    14.6147    13.2872    22.3391    18.0047    100    0.0001    0    90    0.0    17.172    Fault 1
154    14.6147    13.2872    22.3391    18.0047    100    0.0001    0    90    0.0    17.172    Fault 1
155    14.6147    13.2872    22.3391    18.0047    100    0.0001    0    90    0.0    17.172    Fault 1
156    14.6147    13.2872    22.3391    18.0047    100    0.0001    0    90    0.0    17.172    Fault 1
157    14.6147    13.2872    22.3391    18.0047    100    0.0000    0    90    0.0    17.172    Fault 1
158    14.6147    13.2872    22.3391    18.0047    100    0.0000    0    90    0.0    17.172    Fault 1
159    14.6147    13.2872    22.3391    18.0047    100    0.0001    0    90    0.0    17.172    Fault 1
160    14.6147    13.2872    22.3391    18.0047    100    0.0008    0    90    0.0    17.172    Fault 1
161    14.6147    13.2872    22.3391    18.0047    100    0.0002    0    90    0.0    17.172    Fault 1
162    14.6147    13.2872    22.3391    18.0047    100    0.0001    0    90    0.0    17.172    Fault 1
163    14.6147    13.2872    22.3391    18.0047    100    0.0005    0    90    0.0    17.172    Fault 1
164    14.6147    13.2872    22.3391    18.0047    100    0.0002    0    90    0.0    17.172    Fault 1
165    14.6147    13.2872    22.3391    18.0047    100    0.0001    0    90    0.0    17.172    Fault 1
166    14.6147    13.2872    22.3391    18.0047    100    0.0002    0    90    0.0    17.172    Fault 1
167    14.6147    13.2872    22.3391    18.0047    100    0.0001    0    90    0.0    17.172    Fault 1
168    14.6147    13.2872    22.3391    18.0047    100    0.0000    0    90    0.0    17.172    Fault 1
169    14.6147    13.2872    22.3391    18.0047    100    0.0001    0    90    0.0    17.172    Fault 1
170    14.6147    13.2872    22.3391    18.0047    100    0.0001    0    90    0.0    17.172    Fault 1
171    14.6147    13.2872    22.3391    18.0047    100    0.0001    0    90    0.0    17.172    Fault 1
172    14.6147    13.2872    22.3391    18.0047    100    0.0001    0    90    0.0    17.172    Fault 1
173    14.6147    13.2872    22.3391    18.0047    100    0.0001    0    90    0.0    17.172    Fault 1
174    14.6147    13.2872    22.3391    18.0047    100    0.0001    0    90    0.0    17.172    Fault 1
175    14.6147    13.2872    22.3391    18.0047    100    0.0001    0    90    0.0    17.172    Fault 1
176    14.6147    13.2872    22.3391    18.0047    100    0.0001    0    90    0.0    17.172    Fault 1
177    14.6147    13.2872    22.3391    18.0047    100    0.0001    0    90    0.0    17.172    Fault 1
178    14.6147    13.2872    22.3391    18.0047    100    0.0000    0    90    0.0    17.172    Fault 1
179    14.6147    13.2872    22.3391    18.0047    100    0.0001    0    90    0.0    17.172    Fault 1
180    14.6147    13.2872    22.3391    18.0047    100    0.0001    0    90    0.0    17.172    Fault 1
181    14.6147    13.2872    22.3391    18.0047    100    0.0002    0    90    0.0    17.172    Fault 1
182    14.6147    13.2872    22.3391    18.0047    100    0.0001    0    90    0.0    17.172    Fault 1
183    14.6147    13.2872    22.3391    18.0047    100    0.0003    0    90    0.0    17.172    Fault 1
184    14.6147    13.2872    22.3391    18.0047    100    0.0001    0    90    0.0    17.172    Fault 1
185    14.6147    13.2872    22.3391    18.0047    100    0.0001    0    90    0.0    17.172    Fault 1
186    14.6147    13.2872    22.3391    18.0047    100    0.0003    0    90    0.0    17.172    Fault 1
187    14.6147    13.2872    22.3391    18.0047    100    0.0005    0    90    0.0    17.172    Fault 1
188    14.6147    13.2872    22.3391    18.0047    100    0.0000    0    90    0.0    17.172    Fault 1
189    14.6147    13.2872    22.3391    18.0047    100    0.0000    0    90    0.0    17.172    Fault 1
190    14.6147    13.2872    22.3391    18.0047    100    0.0001    0    90    0.0    17.172    Fault 1
191    14.6147    13.2872    22.3391    18.0047    100    0.0001    0    90    0.0    17.172    Fault 1
192    14.6147    13.2872    22.3391    18.0047    100    0.0001    0    90    0.0    17.172    Fault 1
193    14.6147    13.2872    22.3391    18.0047    100    0.0001    0    90    0.0    17.172    Fault 1
194    14.6147    13.2872    22.3391    18.0047    100    0.0001    0    90    0.0    17.172    Fault 1
195    14.6147    13.2872    22.3391    18.0047    100    0.0001    0    90    0.0    17.172    Fault 1
196    14.6147    13.2872    22.3391    18.0047    100    0.0001    0    90    0.0    17.172    Fault 1
197    14.6147    13.2872    22.3391    18.0047    100    0.0001    0    90    0.0    17.172    Fault 1
198    14.6147    13.2872    22.3391    18.0047    100    0.0001    0    90    0.0    17.172    Fault 1
199    14.6147    13.2872    22.3391    18.0047    100    0.0006    0    90    0.0    17.172    Fault 1
200    14.6147    13.2872    22.3391    18.0047    100    0.0003    0    90    0.0    17.172    Fault 1
201    14.6147    13.2872    22.3391    18.0047    100    0.0002    0    90    0.0    17.172    Fault 1
202    14.6147    13.2872    22.3391    18.0047    100    0.0003    0    90    0.0    17.172    Fault 1
203    14.6147    13.2872    22.3391    18.0047    100    0.0001    0    90    0.0    17.172    Fault 1
204    14.6147    13.2872    22.3391    18.0047    100    0.0004    0    90    0.0    17.172    Fault 1
205    14.6147    13.2872    22.3391    18.0047    100    0.0002    0    90    0.0    17.172    Fault 1
206    14.6147    13.2872    22.3391    18.0047    100    0.0001    0    90    0.0    17.172    Fault 1
207    14.6147    13.2872    22.3391    18.0047    100    0.0001    0    90    0.0    17.172    Fault 1
208    14.6147    13.2872    22.3391    18.0047    100    0.0001    0    90    0.0    17.172    Fault 1
209    14.6147    13.2872    22.3391    18.0047    100    0.0000    0    90    0.0    17.172    Fault 1
210    14.6147    13.2872    22.3391    18.0047    100    0.0000    0    90    0.0    17.172    Fault 1
211    14.6147    13.2872    22.3391    18.0047    100    0.0000    0    90    0.0    17.172    Fault 1
212    14.6147    13.2872    22.3391    18.0047    100    0.0000    0    90    0.0    17.172    Fault 1
213    14.6147    13.2872    22.3391    18.0047    100    0.0001    0    90    0.0    17.172    Fault 1
214    14.6147    13.2872    22.3391    18.0047    100    0.0001    0    90    0.0    17.172    Fault 1
215    14.6147    13.2872    22.3391    18.0047    100    0.0001    0    90    0.0    17.172    Fault 1
216    14.6147    13.2872    22.3391    18.0047    100    0.0003    0    90    0.0    17.172    Fault 1
217    14.6147    13.2872    22.3391    18.0047    100    0.0001    0    90    0.0    17.172    Fault 1
218    14.6147    13.2872    22.3391    18.0047    100    0.0000    0    90    0.0    17.172    Fault 1
219    14.6147    13.2872    22.3391    18.0047    100    0.0001    0    90    0.0    17.172    Fault 1
220    14.6147    13.2872    22.3391    18.0047    100    0.0001    0    90    0.0    17.172    Fault 1
221    14.6147    13.2872    22.3391    18.0047    100    0.0000    0    90    0.0    17.172    Fault 1
222    14.6147    13.2872    22.3391    18.0047    100    0.0003    0    90    0.0    17.172    Fault 1
223    14.6147    13.2872    22.3391    18.0047    100    0.0002    0    90    0.0    17.172    Fault 1
224    14.6147    13.2872    22.3391    18.0047    100    0.0000    0    90    0.0    17.172    Fault 1
225    14.6147    13.2872    22.3391    18.0047    100    0.0001    0    90    0.0    17.172    Fault 1
226    14.6147    13.2872    22.3391    18.0047    100    0.0001    0    90    0.0    17.172    Fault 1
227    14.6147    13.2872    22.3391    18.0047    100    0.0001    0    90    0.0    17.172    Fault 1
228    14.6147    13.2872    22.3391    18.0047    100    0.0001    0    90    0.0    17.172    Fault 1
229    14.6147    13.2872    22.3391    18.0047    100    0.0001    0    90    0.0    17.172    Fault 1
230    14.6147    13.2872    22.3391    18.0047    100    0.0001    0    90    0.0    17.172    Fault 1
231    14.6147    13.2872    22.3391    18.0047    100    0.0003    0    90    0.0    17.172    Fault 1
232    14.6147    13.2872    22.3391    18.0047    100    0.0000    0    90    0.0    17.172    Fault 1
233    14.6147    13.2872    22.3391    18.0047    100    0.0001    0    90    0.0    17.172    Fault 1
234    14.6147    13.2872    22.3391    18.0047    100    0.0000    0    90    0.0    17.172    Fault 1
235    14.6147    13.2872    22.3391    18.0047    100    0.0000    0    90    0.0    17.172    Fault 1
236    14.6147    13.2872    22.3391    18.0047    100    0.0001    0    90    0.0    17.172    Fault 1
237    14.6147    13.2872    22.3391    18.0047    100    0.0000    0    90    0.0    17.172    Fault 1
238    14.6147    13.2872    22.3391    18.0047    100    0.0001    0    90    0.0    17.172    Fault 1
239    14.6147    13.2872    22.3391    18.0047    100    0.0003    0    90    0.0    17.172    Fault 1
240    14.6147    13.2872    22.3391    18.0047    100    0.0001    0    90    0.0    17.172    Fault 1
241    14.6147    13.2872    22.3391    18.0047    100    0.0000    0    90    0.0    17.172    Fault 1
242    14.6147    13.2872    22.3391    18.0047    100    0.0001    0    90    0.0    17.172    Fault 1
243    14.6147    13.2872    22.3391    18.0047    100    0.0007    0    90    0.0    17.172    Fault 1
244    14.6147    13.2872    22.3391    18.0047    100    0.0001    0    90    0.0    17.172    Fault 1
245    14.6147    13.2872    22.3391    18.0047    100    0.0001    0    90    0.0    17.172    Fault 1
246    14.6147    13.2872    22.3391    18.0047    100    0.0000    0    90    0.0    17.172    Fault 1
247    14.6147    13.2872    22.3391    18.0047    100    0.0000    0    90    0.0    17.172    Fault 1
248    14.6147    13.2872    22.3391    18.0047    100    0.0001    0    90    0.0    17.172    Fault 1
249    14.6147    13.2872    22.3391    18.0047    100    0.0002    0    90    0.0    17.172    Fault 1
250    14.6147    13.2872    22.3391    18.0047    100    0.0000    0    90    0.0    17.172    Fault 1
251    14.6147    13.2872    22.3391    18.0047    100    0.0001    0    90    0.0    17.172    Fault 1
252    14.6147    13.2872    22.3391    18.0047    100    0.0000    0    90    0.0    17.172    Fault 1
253    14.6147    13.2872    22.3391    18.0047    100    0.0001    0    90    0.0    17.172    Fault 1
254    14.6147    13.2872    22.3391    18.0047    100    0.0002    0    90    0.0    17.172    Fault 1
255    14.6147    13.2872    22.3391    18.0047    100    0.0005    0    90    0.0    17.172    Fault 1
256    14.6147    13.2872    22.3391    18.0047    100    0.0001    0    90    0.0    17.172    Fault 1
257    14.6147    13.2872    22.3391    18.0047    100    0.0000    0    90    0.0    17.172    Fault 1
258    14.6147    13.2872    22.3391    18.0047    100    0.0001    0    90    0.0    17.172    Fault 1
259    14.6147    13.2872    22.3391    18.0047    100    0.0007    0    90    0.0    17.172    Fault 1
260    14.6147    13.2872    22.3391    18.0047    100    0.0001    0    90    0.0    17.172    Fault 1
261    14.6147    13.2872    22.3391    18.0047    100    0.0000    0    90    0.0    17.172    Fault 1
262    14.6147    13.2872    22.3391    18.0047    100    0.0001    0    90    0.0    17.172    Fault 1
263    14.6147    13.2872    22.3391    18.0047    100    0.0000    0    90    0.0    17.172    Fault 1
264    14.6147    13.2872    22.3391    18.0047    100    0.0003    0    90    0.0    17.172    Fault 1
265    14.6147    13.2872    22.3391    18.0047    100    0.0001    0    90    0.0    17.172    Fault 1
266    14.6147    13.2872    22.3391    18.0047    100    0.0003    0    90    0.0    17.172    Fault 1
267    14.6147    13.2872    22.3391    18.0047    100    0.0001    0    90    0.0    17.172    Fault 1
268    14.6147    13.2872    22.3391    18.0047    100    0.0002    0    90    0.0    17.172    Fault 1
269    14.6147    13.2872    22.3391    18.0047    100    0.0000    0    90    0.0    17.172    Fault 1
270    14.6147    13.2872    22.3391    18.0047    100    0.0000    0    90    0.0    17.172    Fault 1
271    14.6147    13.2872    22.3391    18.0047    100    0.0004    0    90    0.0    17.172    Fault 1
272    14.6147    13.2872    22.3391    18.0047    100    0.0001    0    90    0.0    17.172    Fault 1
273    14.6147    13.2872    22.3391    18.0047    100    0.0000    0    90    0.0    17.172    Fault 1
274    14.6147    13.2872    22.3391    18.0047    100    0.0002    0    90    0.0    17.172    Fault 1
275    14.6147    13.2872    22.3391    18.0047    100    0.0001    0    90    0.0    17.172    Fault 1
276    14.6147    13.2872    22.3391    18.0047    100    0.0001    0    90    0.0    17.172    Fault 1
277    14.6147    13.2872    22.3391    18.0047    100    0.0002    0    90    0.0    17.172    Fault 1
278    14.6147    13.2872    22.3391    18.0047    100    0.0000    0    90    0.0    17.172    Fault 1
279    14.6147    13.2872    22.3391    18.0047    100    0.0001    0    90    0.0    17.172    Fault 1
280    14.6147    13.2872    22.3391    18.0047    100    0.0001    0    90    0.0    17.172    Fault 1
281    14.6147    13.2872    22.3391    18.0047    100    0.0002    0    90    0.0    17.172    Fault 1
282    14.6147    13.2872    22.3391    18.0047    100    0.0001    0    90    0.0    17.172    Fault 1
283    14.6147    13.2872    22.3391    18.0047    100    0.0002    0    90    0.0    17.172    Fault 1
284    14.6147    13.2872    22.3391    18.0047    100    0.0001    0    90    0.0    17.172    Fault 1
285    14.6147    13.2872    22.3391    18.0047    100    0.0001    0    90    0.0    17.172    Fault 1
286    14.6147    13.2872    22.3391    18.0047    100    0.0004    0    90    0.0    17.172    Fault 1
287    14.6147    13.2872    22.3391    18.0047    100    0.0004    0    90    0.0    17.172    Fault 1
288    14.6147    13.2872    22.3391    18.0047    100    0.0001    0    90    0.0    17.172    Fault 1
289    14.6147    13.2872    22.3391    18.0047    100    0.0005    0    90    0.0    17.172    Fault 1
290    14.6147    13.2872    22.3391    18.0047    100    0.0001    0    90    0.0    17.172    Fault 1
291    14.6147    13.2872    22.3391    18.0047    100    0.0000    0    90    0.0    17.172    Fault 1
292    14.6147    13.2872    22.3391    18.0047    100    0.0001    0    90    0.0    17.172    Fault 1
293    14.6147    13.2872    22.3391    18.0047    100    0.0002    0    90    0.0    17.172    Fault 1
294    14.6147    13.2872    22.3391    18.0047    100    0.0004    0    90    0.0    17.172    Fault 1
295    14.6147    13.2872    22.3391    18.0047    100    0.0001    0    90    0.0    17.172    Fault 1
296    14.6147    13.2872    22.3391    18.0047    100    0.0001    0    90    0.0    17.172    Fault 1
297    14.6147    13.2872    22.3391    18.0047    100    0.0001    0    90    0.0    17.172    Fault 1
298    14.6147    13.2872    22.3391    18.0047    100    0.0001    0    90    0.0    17.172    Fault 1
299    14.6147    13.2872    22.3391    18.0047    100    0.0005    0    90    0.0    17.172    Fault 1
300    14.6147    13.2872    22.3391    18.0047    100    0.0001    0    90    0.0    17.172    Fault 1
301    14.6147    13.2872    22.3391    18.0047    100    0.0000    0    90    0.0    17.172    Fault 1
302    14.6147    13.2872    22.3391    18.0047    100    0.0001    0    90    0.0    17.172    Fault 1
303    14.6147    13.2872    22.3391    18.0047    100    0.0000    0    90    0.0    17.172    Fault 1
304    14.6147    13.2872    22.3391    18.0047    100    0.0000    0    90    0.0    17.172    Fault 1
305    14.6147    13.2872    22.3391    18.0047    100    0.0001    0    90    0.0    17.172    Fault 1
306    14.6147    13.2872    22.3391    18.0047    100    0.0001    0    90    0.0    17.172    Fault 1
307    14.6147    13.2872    22.3391    18.0047    100    0.0003    0    90    0.0    17.172    Fault 1
308    14.6147    13.2872    22.3391    18.0047    100    0.0001    0    90    0.0    17.172    Fault 1
309    14.6147    13.2872    22.3391    18.0047    100    0.0001    0    90    0.0    17.172    Fault 1
310    14.6147    13.2872    22.3391    18.0047    100    0.0001    0    90    0.0    17.172    Fault 1
311    14.6147    13.2872    22.3391    18.0047    100    0.0004    0    90    0.0    17.172    Fault 1
312    14.6147    13.2872    22.3391    18.0047    100    0.0001    0    90    0.0    17.172    Fault 1
313    14.6147    13.2872    22.3391    18.0047    100    0.0001    0    90    0.0    17.172    Fault 1
314    14.6147    13.2872    22.3391    18.0047    100    0.0002    0    90    0.0    17.172    Fault 1
315    14.6147    13.2872    22.3391    18.0047    100    0.0000    0    90    0.0    17.172    Fault 1
316    14.6147    13.2872    22.3391    18.0047    100    0.0001    0    90    0.0    17.172    Fault 1
317    14.6147    13.2872    22.3391    18.0047    100    0.0002    0    90    0.0    17.172    Fault 1
318    14.6147    13.2872    22.3391    18.0047    100    0.0002    0    90    0.0    17.172    Fault 1
319    14.6147    13.2872    22.3391    18.0047    100    0.0001    0    90    0.0    17.172    Fault 1
320    14.6147    13.2872    22.3391    18.0047    100    0.0000    0    90    0.0    17.172    Fault 1
321    14.6147    13.2872    22.3391    18.0047    100    0.0000    0    90    0.0    17.172    Fault 1
322    14.6147    13.2872    22.3391    18.0047    100    0.0001    0    90    0.0    17.172    Fault 1
323    14.6147    13.2872    22.3391    18.0047    100    0.0000    0    90    0.0    17.172    Fault 1
324    14.6147    13.2872    22.3391    18.0047    100    0.0001    0    90    0.0    17.172    Fault 1
325    14.6147    13.2872    22.3391    18.0047    100    0.0001    0    90    0.0    17.172    Fault 1
326    14.6147    13.2872    22.3391    18.0047    100    0.0001    0    90    0.0    17.172    Fault 1
327    14.6147    13.2872    22.3391    18.0047    100    0.0001    0    90    0.0    17.172    Fault 1
328    14.6147    13.2872    22.3391    18.0047    100    0.0001    0    90    0.0    17.172    Fault 1
329    14.6147    13.2872    22.3391    18.0047    100    0.0001    0    90    0.0    17.172    Fault 1
330    14.6147    13.2872    22.3391    18.0047    100    0.0001    0    90    0.0    17.172    Fault 1
331    14.6147    13.2872    22.3391    18.0047    100    0.0000    0    90    0.0    17.172    Fault 1
332    14.6147    13.2872    22.3391    18.0047    100    0.0001    0    90    0.0    17.172    Fault 1
333    14.6147    13.2872    22.3391    18.0047    100    0.0002    0    90    0.0    17.172    Fault 1
334    14.6147    13.2872    22.3391    18.0047    100    0.0002    0    90    0.0    17.172    Fault 1
335    14.6147    13.2872    22.3391    18.0047    100    0.0001    0    90    0.0    17.172    Fault 1
336    14.6147    13.2872    22.3391    18.0047    100    0.0001    0    90    0.0    17.172    Fault 1
337    14.6147    13.2872    22.3391    18.0047    100    0.0001    0    90    0.0    17.172    Fault 1
338    14.6147    13.2872    22.3391    18.0047    100    0.0000    0    90    0.0    17.172    Fault 1
339    14.6147    13.2872    22.3391    18.0047    100    0.0001    0    90    0.0    17.172    Fault 1
340    14.6147    13.2872    22.3391    18.0047    100    0.0002    0    90    0.0    17.172    Fault 1
341    14.6147    13.2872    22.3391    18.0047    100    0.0001    0    90    0.0    17.172    Fault 1
342    14.6147    13.2872    22.3391    18.0047    100    0.0001    0    90    0.0    17.172    Fault 1
343    14.6147    13.2872    22.3391    18.0047    100    0.0001    0    90    0.0    17.172    Fault 1
344    14.6147    13.2872    22.3391    18.0047    100    0.0000    0    90    0.0    17.172    Fault 1
345    14.6147    13.2872    22.3391    18.0047    100    0.0000    0    90    0.0    17.172    Fault 1
346    14.6147    13.2872    22.3391    18.0047    100    0.0000    0    90    0.0    17.172    Fault 1
347    14.6147    13.2872    22.3391    18.0047    100    0.0000    0    90    0.0    17.172    Fault 1
348    14.6147    13.2872    22.3391    18.0047    100    0.0001    0    90    0.0    17.172    Fault 1
349    14.6147    13.2872    22.3391    18.0047    100    0.0002    0    90    0.0    17.172    Fault 1
350    14.6147    13.2872    22.3391    18.0047    100    0.0001    0    90    0.0    17.172    Fault 1
351    14.6147    13.2872    22.3391    18.0047    100    0.0001    0    90    0.0    17.172    Fault 1
352    14.6147    13.2872    22.3391    18.0047    100    0.0001    0    90    0.0    17.172    Fault 1
353    14.6147    13.2872    22.3391    18.0047    100    0.0001    0    90    0.0    17.172    Fault 1
354    14.6147    13.2872    22.3391    18.0047    100    0.0000    0    90    0.0    17.172    Fault 1
355    14.6147    13.2872    22.3391    18.0047    100    0.0001    0    90    0.0    17.172    Fault 1
356    14.6147    13.2872    22.3391    18.0047    100    0.0001    0    90    0.0    17.172    Fault 1
357    14.6147    13.2872    22.3391    18.0047    100    0.0001    0    90    0.0    17.172    Fault 1
358    14.6147    13.2872    22.3391    18.0047    100    0.0001    0    90    0.0    17.172    Fault 1
359    14.6147    13.2872    22.3391    18.0047    100    0.0001    0    90    0.0    17.172    Fault 1
360    14.6147    13.2872    22.3391    18.0047    100    0.0000    0    90    0.0    17.172    Fault 1
361    14.6147    13.2872    22.3391    18.0047    100    0.0000    0    90    0.0    17.172    Fault 1
362    14.6147    13.2872    22.3391    18.0047    100    0.0001    0    90    0.0    17.172    Fault 1
363    14.6147    13.2872    22.3391    18.0047    100    0.0000    0    90    0.0    17.172    Fault 1
364    14.6147    13.2872    22.3391    18.0047    100    0.0001    0    90    0.0    17.172    Fault 1
365    14.6147    13.2872    22.3391    18.0047    100    0.0001    0    90    0.0    17.172    Fault 1
366    14.6147    13.2872    22.3391    18.0047    100    0.0001    0    90    0.0    17.172    Fault 1
367    14.6147    13.2872    22.3391    18.0047    100    0.0001    0    90    0.0    17.172    Fault 1
368    14.6147    13.2872    22.3391    18.0047    100    0.0000    0    90    0.0    17.172    Fault 1
369    14.6147    13.2872    22.3391    18.0047    100    0.0004    0    90    0.0    17.172    Fault 1
370    14.6147    13.2872    22.3391    18.0047    100    0.0002    0    90    0.0    17.172    Fault 1
371    14.6147    13.2872    22.3391    18.0047    100    0.0001    0    90    0.0    17.172    Fault 1
372    14.6147    13.2872    22.3391    18.0047    100    0.0000    0    90    0.0    17.172    Fault 1
373    14.6147    13.2872    22.3391    18.0047    100    0.0001    0    90    0.0    17.172    Fault 1
374    14.6147    13.2872    22.3391    18.0047    100    0.0001    0    90    0.0    17.172    Fault 1
375    14.6147    13.2872    22.3391    18.0047    100    0.0002    0    90    0.0    17.172    Fault 1
376    14.6147    13.2872    22.3391    18.0047    100    0.0001    0    90    0.0    17.172    Fault 1
377    14.6147    13.2872    22.3391    18.0047    100    0.0002    0    90    0.0    17.172    Fault 1
378    14.6147    13.2872    22.3391    18.0047    100    0.0001    0    90    0.0    17.172    Fault 1
379    14.6147    13.2872    22.3391    18.0047    100    0.0001    0    90    0.0    17.172    Fault 1
380    14.6147    13.2872    22.3391    18.0047    100    0.0001    0    90    0.0    17.172    Fault 1
381    14.6147    13.2872    22.3391    18.0047    100    0.0004    0    90    0.0    17.172    Fault 1
382    14.6147    13.2872    22.3391    18.0047    100    0.0000    0    90    0.0    17.172    Fault 1
383    14.6147    13.2872    22.3391    18.0047    100    0.0001    0    90    0.0    17.172    Fault 1
384    14.6147    13.2872    22.3391    18.0047    100    0.0004    0    90    0.0    17.172    Fault 1
385    14.6147    13.2872    22.3391    18.0047    100    0.0000    0    90    0.0    17.172    Fault 1
386    14.6147    13.2872    22.3391    18.0047    100    0.0002    0    90    0.0    17.172    Fault 1
387    14.6147    13.2872    22.3391    18.0047    100    0.0001    0    90    0.0    17.172    Fault 1
388    14.6147    13.2872    22.3391    18.0047    100    0.0000    0    90    0.0    17.172    Fault 1
389    14.6147    13.2872    22.3391    18.0047    100    0.0001    0    90    0.0    17.172    Fault 1
390    14.6147    13.2872    22.3391    18.0047    100    0.0000    0    90    0.0    17.172    Fault 1
391    14.6147    13.2872    22.3391    18.0047    100    0.0001    0    90    0.0    17.172    Fault 1
392    14.6147    13.2872    22.3391    18.0047    100    0.0001    0    90    0.0    17.172    Fault 1
393    14.6147    13.2872    22.3391    18.0047    100    0.0001    0    90    0.0    17.172    Fault 1
394    14.6147    13.2872    22.3391    18.0047    100    0.0001    0    90    0.0    17.172    Fault 1
395    14.6147    13.2872    22.3391    18.0047    100    0.0001    0    90    0.0    17.172    Fault 1
396    14.6147    13.2872    22.3391    18.0047    100    0.0003    0    90    0.0    17.172    Fault 1
397    14.6147    13.2872    22.3391    18.0047    100    0.0001    0    90    0.0    17.172    Fault 1
398    14.6147    13.2872    22.3391    18.0047    100    0.0001    0    90    0.0    17.172    Fault 1
399    14.6147    13.2872    22.3391    18.0047    100    0.0000    0    90    0.0    17.172    Fault 1
400    14.6147    13.2872    22.3391    18.0047    100    0.0002    0    90    0.0    17.172    Fault 1
401    14.6147    13.2872    22.3391    18.0047    100    0.0000    0    90    0.0    17.172    Fault 1
402    14.6147    13.2872    22.3391    18.0047    100    0.0000    0    90    0.0    17.172    Fault 1
403    14.6147    13.2872    22.3391    18.0047    100    0.0001    0    90    0.0    17.172    Fault 1
404    14.6147    13.2872    22.3391    18.0047    100    0.0001    0    90    0.0    17.172    Fault 1
405    14.6147    13.2872    22.3391    18.0047    100    0.0000    0    90    0.0    17.172    Fault 1
406    14.6147    13.2872    22.3391    18.0047    100    0.0001    0    90    0.0    17.172    Fault 1
407    14.6147    13.2872    22.3391    18.0047    100    0.0001    0    90    0.0    17.172    Fault 1
408    14.6147    13.2872    22.3391    18.0047    100    0.0000    0    90    0.0    17.172    Fault 1
409    14.6147    13.2872    22.3391    18.0047    100    0.0001    0    90    0.0    17.172    Fault 1
410    14.6147    13.2872    22.3391    18.0047    100    0.0004    0    90    0.0    17.172    Fault 1
411    14.6147    13.2872    22.3391    18.0047    100    0.0001    0    90    0.0    17.172    Fault 1
412    14.6147    13.2872    22.3391    18.0047    100    0.0000    0    90    0.0    17.172    Fault 1
413    14.6147    13.2872    22.3391    18.0047    100    0.0003    0    90    0.0    17.172    Fault 1
414    14.6147    13.2872    22.3391    18.0047    100    0.0001    0    90    0.0    17.172    Fault 1
415    14.6147    13.2872    22.3391    18.0047    100    0.0000    0    90    0.0    17.172    Fault 1
416    14.6147    13.2872    22.3391    18.0047    100    0.0001    0    90    0.0    17.172    Fault 1
417    14.6147    13.2872    22.3391    18.0047    100    0.0001    0    90    0.0    17.172    Fault 1
418    14.6147    13.2872    22.3391    18.0047    100    0.0001    0    90    0.0    17.172    Fault 1
419    14.6147    13.2872    22.3391    18.0047    100    0.0001    0    90    0.0    17.172    Fault 1
420    14.6147    13.2872    22.3391    18.0047    100    0.0002    0    90    0.0    17.172    Fault 1
421    14.6147    13.2872    22.3391    18.0047    100    0.0001    0    90    0.0    17.172    Fault 1
422    14.6147    13.2872    22.3391    18.0047    100    0.0000    0    90    0.0    17.172    Fault 1
423    14.6147    13.2872    22.3391    18.0047    100    0.0001    0    90    0.0    17.172    Fault 1
424    14.6147    13.2872    22.3391    18.0047    100    0.0001    0    90    0.0    17.172    Fault 1
425    14.6147    13.2872    22.3391    18.0047    100    0.0001    0    90    0.0    17.172    Fault 1
426    14.6147    13.2872    22.3391    18.0047    100    0.0004    0    90    0.0    17.172    Fault 1
427    14.6147    13.2872    22.3391    18.0047    100    0.0004    0    90    0.0    17.172    Fault 1
428    14.6147    13.2872    22.3391    18.0047    100    0.0001    0    90    0.0    17.172    Fault 1
429    14.6147    13.2872    22.3391    18.0047    100    0.0004    0    90    0.0    17.172    Fault 1
430    14.6147    13.2872    22.3391    18.0047    100    0.0004    0    90    0.0    17.172    Fault 1
431    14.6147    13.2872    22.3391    18.0047    100    0.0003    0    90    0.0    17.172    Fault 1
432    14.6147    13.2872    22.3391    18.0047    100    0.0014    0    90    0.0    17.172    Fault 1
433    14.6147    13.2872    22.3391    18.0047    100    0.0017    0    90    0.0    17.172    Fault 1
434    14.6147    13.2872    22.3391    18.0047    100    0.0001    0    90    0.0    17.172    Fault 1
435    14.6147    13.2872    22.3391    18.0047    100    0.0001    0    90    0.0    17.172    Fault 1
436    14.6147    13.2872    22.3391    18.0047    100    0.0005    0    90    0.0    17.172    Fault 1
437    14.6147    13.2872    22.3391    18.0047    100    0.0002    0    90    0.0    17.172    Fault 1
438    14.6147    13.2872    22.3391    18.0047    100    0.0001    0    90    0.0    17.172    Fault 1
439    14.6147    13.2872    22.3391    18.0047    100    0.0001    0    90    0.0    17.172    Fault 1
440    14.6147    13.2872    22.3391    18.0047    100    0.0001    0    90    0.0    17.172    Fault 1
441    14.6147    13.2872    22.3391    18.0047    100    0.0001    0    90    0.0    17.172    Fault 1
442    14.6147    13.2872    22.3391    18.0047    100    0.0001    0    90    0.0    17.172    Fault 1
443    14.6147    13.2872    22.3391    18.0047    100    0.0002    0    90    0.0    17.172    Fault 1
444    14.6147    13.2872    22.3391    18.0047    100    0.0002    0    90    0.0    17.172    Fault 1
445    14.6147    13.2872    22.3391    18.0047    100    0.0025    0    90    0.0    17.172    Fault 1
446    14.6147    13.2872    22.3391    18.0047    100    0.0004    0    90    0.0    17.172    Fault 1
447    14.6147    13.2872    22.3391    18.0047    100    0.0003    0    90    0.0    17.172    Fault 1
448    14.6147    13.2872    22.3391    18.0047    100    0.0001    0    90    0.0    17.172    Fault 1
449    14.6147    13.2872    22.3391    18.0047    100    0.0003    0    90    0.0    17.172    Fault 1
450    14.6147    13.2872    22.3391    18.0047    100    0.0001    0    90    0.0    17.172    Fault 1
451    14.6147    13.2872    22.3391    18.0047    100    0.0003    0    90    0.0    17.172    Fault 1
452    14.6147    13.2872    22.3391    18.0047    100    0.0002    0    90    0.0    17.172    Fault 1
453    14.6147    13.2872    22.3391    18.0047    100    0.0003    0    90    0.0    17.172    Fault 1
454    14.6147    13.2872    22.3391    18.0047    100    0.0001    0    90    0.0    17.172    Fault 1
455    14.6147    13.2872    22.3391    18.0047    100    0.0004    0    90    0.0    17.172    Fault 1
456    14.6147    13.2872    22.3391    18.0047    100    0.0002    0    90    0.0    17.172    Fault 1
457    14.6147    13.2872    22.3391    18.0047    100    0.0001    0    90    0.0    17.172    Fault 1
458    14.6147    13.2872    22.3391    18.0047    100    0.0003    0    90    0.0    17.172    Fault 1
459    14.6147    13.2872    22.3391    18.0047    100    0.0002    0    90    0.0    17.172    Fault 1
460    14.6147    13.2872    22.3391    18.0047    100    0.0004    0    90    0.0    17.172    Fault 1
461    14.6147    13.2872    22.3391    18.0047    100    0.0003    0    90    0.0    17.172    Fault 1
462    14.6147    13.2872    22.3391    18.0047    100    0.0000    0    90    0.0    17.172    Fault 1
463    14.6147    13.2872    22.3391    18.0047    100    0.0004    0    90    0.0    17.172    Fault 1
464    14.6147    13.2872    22.3391    18.0047    100    0.0002    0    90    0.0    17.172    Fault 1
465    14.6147    13.2872    22.3391    18.0047    100    0.0009    0    90    0.0    17.172    Fault 1
466    14.6147    13.2872    22.3391    18.0047    100    0.0006    0    90    0.0    17.172    Fault 1
467    14.6147    13.2872    22.3391    18.0047    100    0.0010    0    90    0.0    17.172    Fault 1
468    14.6147    13.2872    22.3391    18.0047    100    0.0005    0    90    0.0    17.172    Fault 1
469    14.6147    13.2872    22.3391    18.0047    100    0.0002    0    90    0.0    17.172    Fault 1
470    14.6147    13.2872    22.3391    18.0047    100    0.0002    0    90    0.0    17.172    Fault 1
471    14.6147    13.2872    22.3391    18.0047    100    0.0001    0    90    0.0    17.172    Fault 1
472    14.6147    13.2872    22.3391    18.0047    100    0.0000    0    90    0.0    17.172    Fault 1
473    14.6147    13.2872    22.3391    18.0047    100    0.0001    0    90    0.0    17.172    Fault 1
474    14.6147    13.2872    22.3391    18.0047    100    0.0003    0    90    0.0    17.172    Fault 1
475    14.6147    13.2872    22.3391    18.0047    100    0.0001    0    90    0.0    17.172    Fault 1
476    14.6147    13.2872    22.3391    18.0047    100    0.0001    0    90    0.0    17.172    Fault 1
477    14.6147    13.2872    22.3391    18.0047    100    0.0001    0    90    0.0    17.172    Fault 1
478    14.6147    13.2872    22.3391    18.0047    100    0.0001    0    90    0.0    17.172    Fault 1
479    14.6147    13.2872    22.3391    18.0047    100    0.0001    0    90    0.0    17.172    Fault 1
480    14.6147    13.2872    22.3391    18.0047    100    0.0001    0    90    0.0    17.172    Fault 1
481    14.6147    13.2872    22.3391    18.0047    100    0.0001    0    90    0.0    17.172    Fault 1
482    14.6147    13.2872    22.3391    18.0047    100    0.0003    0    90    0.0    17.172    Fault 1
483    14.6147    13.2872    22.3391    18.0047    100    0.0001    0    90    0.0    17.172    Fault 1
484    14.6147    13.2872    22.3391    18.0047    100    0.0001    0    90    0.0    17.172    Fault 1
485    14.6147    13.2872    22.3391    18.0047    100    0.0009    0    90    0.0    17.172    Fault 1
486    14.6147    13.2872    22.3391    18.0047    100    0.0002    0    90    0.0    17.172    Fault 1
487    14.6147    13.2872    22.3391    18.0047    100    0.0004    0    90    0.0    17.172    Fault 1
488    14.6147    13.2872    22.3391    18.0047    100    0.0002    0    90    0.0    17.172    Fault 1
489    14.6147    13.2872    22.3391    18.0047    100    0.0003    0    90    0.0    17.172    Fault 1
490    14.6147    13.2872    22.3391    18.0047    100    0.0006    0    90    0.0    17.172    Fault 1
491    14.6147    13.2872    22.3391    18.0047    100    0.0004    0    90    0.0    17.172    Fault 1
492    14.6147    13.2872    22.3391    18.0047    100    0.0002    0    90    0.0    17.172    Fault 1
493    14.6147    13.2872    22.3391    18.0047    100    0.0005    0    90    0.0    17.172    Fault 1
494    14.6147    13.2872    22.3391    18.0047    100    0.0001    0    90    0.0    17.172    Fault 1
495    14.6147    13.2872    22.3391    18.0047    100    0.0001    0    90    0.0    17.172    Fault 1
496    14.6147    13.2872    22.3391    18.0047    100    0.0001    0    90    0.0    17.172    Fault 1
497    14.6147    13.2872    22.3391    18.0047    100    0.0000    0    90    0.0    17.172    Fault 1
498    14.6147    13.2872    22.3391    18.0047    100    0.0003    0    90    0.0    17.172    Fault 1
499    14.6147    13.2872    22.3391    18.0047    100    0.0001    0    90    0.0    17.172    Fault 1
500    14.6147    13.2872    22.3391    18.0047    100    0.0001    0    90    0.0    17.172    Fault 1
501    14.6147    13.2872    22.3391    18.0047    100    0.0004    0    90    0.0    17.172    Fault 1
502    14.6147    13.2872    22.3391    18.0047    100    0.0001    0    90    0.0    17.172    Fault 1
503    14.6147    13.2872    22.3391    18.0047    100    0.0006    0    90    0.0    17.172    Fault 1
504    14.6147    13.2872    22.3391    18.0047    100    0.0003    0    90    0.0    17.172    Fault 1
505    14.6147    13.2872    22.3391    18.0047    100    0.0000    0    90    0.0    17.172    Fault 1
506    14.6147    13.2872    22.3391    18.0047    100    0.0001    0    90    0.0    17.172    Fault 1
507    14.6147    13.2872    22.3391    18.0047    100    0.0002    0    90    0.0    17.172    Fault 1
508    14.6147    13.2872    22.3391    18.0047    100    0.0000    0    90    0.0    17.172    Fault 1
509    14.6147    13.2872    22.3391    18.0047    100    0.0010    0    90    0.0    17.172    Fault 1
510    14.6147    13.2872    22.3391    18.0047    100    0.0001    0    90    0.0    17.172    Fault 1
511    14.6147    13.2872    22.3391    18.0047    100    0.0005    0    90    0.0    17.172    Fault 1
512    14.6147    13.2872    22.3391    18.0047    100    0.0004    0    90    0.0    17.172    Fault 1
513    14.6147    13.2872    22.3391    18.0047    100    0.0003    0    90    0.0    17.172    Fault 1
514    14.6147    13.2872    22.3391    18.0047    100    0.0001    0    90    0.0    17.172    Fault 1
515    14.6147    13.2872    22.3391    18.0047    100    0.0003    0    90    0.0    17.172    Fault 1
516    14.6147    13.2872    22.3391    18.0047    100    0.0002    0    90    0.0    17.172    Fault 1
517    14.6147    13.2872    22.3391    18.0047    100    0.0001    0    90    0.0    17.172    Fault 1
518    14.6147    13.2872    22.3391    18.0047    100    0.0001    0    90    0.0    17.172    Fault 1
519    14.6147    13.2872    22.3391    18.0047    100    0.0002    0    90    0.0    17.172    Fault 1
520    14.6147    13.2872    22.3391    18.0047    100    0.0001    0    90    0.0    17.172    Fault 1
521    14.6147    13.2872    22.3391    18.0047    100    0.0002    0    90    0.0    17.172    Fault 1
522    14.6147    13.2872    22.3391    18.0047    100    0.0001    0    90    0.0    17.172    Fault 1
523    14.6147    13.2872    22.3391    18.0047    100    0.0001    0    90    0.0    17.172    Fault 1
524    14.6147    13.2872    22.3391    18.0047    100    0.0005    0    90    0.0    17.172    Fault 1
525    14.6147    13.2872    22.3391    18.0047    100    0.0001    0    90    0.0    17.172    Fault 1
526    14.6147    13.2872    22.3391    18.0047    100    0.0002    0    90    0.0    17.172    Fault 1
527    14.6147    13.2872    22.3391    18.0047    100    0.0001    0    90    0.0    17.172    Fault 1
528    14.6147    13.2872    22.3391    18.0047    100    0.0000    0    90    0.0    17.172    Fault 1
529    14.6147    13.2872    22.3391    18.0047    100    0.0002    0    90    0.0    17.172    Fault 1
530    14.6147    13.2872    22.3391    18.0047    100    0.0003    0    90    0.0    17.172    Fault 1
531    14.6147    13.2872    22.3391    18.0047    100    0.0004    0    90    0.0    17.172    Fault 1
532    14.6147    13.2872    22.3391    18.0047    100    0.0004    0    90    0.0    17.172    Fault 1
533    14.6147    13.2872    22.3391    18.0047    100    0.0002    0    90    0.0    17.172    Fault 1
534    14.6147    13.2872    22.3391    18.0047    100    0.0003    0    90    0.0    17.172    Fault 1
535    14.6147    13.2872    22.3391    18.0047    100    0.0001    0    90    0.0    17.172    Fault 1
536    14.6147    13.2872    22.3391    18.0047    100    0.0002    0    90    0.0    17.172    Fault 1
537    14.6147    13.2872    22.3391    18.0047    100    0.0003    0    90    0.0    17.172    Fault 1
538    14.6147    13.2872    22.3391    18.0047    100    0.0003    0    90    0.0    17.172    Fault 1
539    14.6147    13.2872    22.3391    18.0047    100    0.0003    0    90    0.0    17.172    Fault 1
540    14.6147    13.2872    22.3391    18.0047    100    0.0003    0    90    0.0    17.172    Fault 1
541    14.6147    13.2872    22.3391    18.0047    100    0.0003    0    90    0.0    17.172    Fault 1
542    14.6147    13.2872    22.3391    18.0047    100    0.0003    0    90    0.0    17.172    Fault 1
543    14.6147    13.2872    22.3391    18.0047    100    0.0001    0    90    0.0    17.172    Fault 1
544    14.6147    13.2872    22.3391    18.0047    100    0.0000    0    90    0.0    17.172    Fault 1
545    14.6147    13.2872    22.3391    18.0047    100    0.0001    0    90    0.0    17.172    Fault 1
546    14.6147    13.2872    22.3391    18.0047    100    0.0002    0    90    0.0    17.172    Fault 1
547    14.6147    13.2872    22.3391    18.0047    100    0.0001    0    90    0.0    17.172    Fault 1
548    14.6147    13.2872    22.3391    18.0047    100    0.0001    0    90    0.0    17.172    Fault 1
549    14.6147    13.2872    22.3391    18.0047    100    0.0001    0    90    0.0    17.172    Fault 1
550    14.6147    13.2872    22.3391    18.0047    100    0.0001    0    90    0.0    17.172    Fault 1
551    14.6147    13.2872    22.3391    18.0047    100    0.0001    0    90    0.0    17.172    Fault 1
552    14.6147    13.2872    22.3391    18.0047    100    0.0001    0    90    0.0    17.172    Fault 1
553    14.6147    13.2872    22.3391    18.0047    100    0.0001    0    90    0.0    17.172    Fault 1
554    14.6147    13.2872    22.3391    18.0047    100    0.0001    0    90    0.0    17.172    Fault 1
555    14.6147    13.2872    22.3391    18.0047    100    0.0001    0    90    0.0    17.172    Fault 1
556    14.6147    13.2872    22.3391    18.0047    100    0.0001    0    90    0.0    17.172    Fault 1
557    14.6147    13.2872    22.3391    18.0047    100    0.0007    0    90    0.0    17.172    Fault 1
558    14.6147    13.2872    22.3391    18.0047    100    0.0006    0    90    0.0    17.172    Fault 1
559    14.6147    13.2872    22.3391    18.0047    100    0.0001    0    90    0.0    17.172    Fault 1
560    14.6147    13.2872    22.3391    18.0047    100    0.0001    0    90    0.0    17.172    Fault 1
561    14.6147    13.2872    22.3391    18.0047    100    0.0001    0    90    0.0    17.172    Fault 1
562    14.6147    13.2872    22.3391    18.0047    100    0.0000    0    90    0.0    17.172    Fault 1
563    14.6147    13.2872    22.3391    18.0047    100    0.0003    0    90    0.0    17.172    Fault 1
564    14.6147    13.2872    22.3391    18.0047    100    0.0006    0    90    0.0    17.172    Fault 1
565    14.6147    13.2872    22.3391    18.0047    100    0.0009    0    90    0.0    17.172    Fault 1
566    14.6147    13.2872    22.3391    18.0047    100    0.0004    0    90    0.0    17.172    Fault 1
567    14.6147    13.2872    22.3391    18.0047    100    0.0004    0    90    0.0    17.172    Fault 1
568    14.6147    13.2872    22.3391    18.0047    100    0.0001    0    90    0.0    17.172    Fault 1
569    14.6147    13.2872    22.3391    18.0047    100    0.0001    0    90    0.0    17.172    Fault 1
570    14.6147    13.2872    22.3391    18.0047    100    0.0004    0    90    0.0    17.172    Fault 1
571    14.6147    13.2872    22.3391    18.0047    100    0.0004    0    90    0.0    17.172    Fault 1
572    14.6147    13.2872    22.3391    18.0047    100    0.0003    0    90    0.0    17.172    Fault 1
573    14.6147    13.2872    22.3391    18.0047    100    0.0005    0    90    0.0    17.172    Fault 1
574    14.6147    13.2872    22.3391    18.0047    100    0.0001    0    90    0.0    17.172    Fault 1
575    14.6147    13.2872    22.3391    18.0047    100    0.0001    0    90    0.0    17.172    Fault 1
576    14.6147    13.2872    22.3391    18.0047    100    0.0001    0    90    0.0    17.172    Fault 1
577    14.6147    13.2872    22.3391    18.0047    100    0.0001    0    90    0.0    17.172    Fault 1
578    14.6147    13.2872    22.3391    18.0047    100    0.0002    0    90    0.0    17.172    Fault 1
579    14.6147    13.2872    22.3391    18.0047    100    0.0004    0    90    0.0    17.172    Fault 1
580    14.6147    13.2872    22.3391    18.0047    100    0.0003    0    90    0.0    17.172    Fault 1
581    14.6147    13.2872    22.3391    18.0047    100    0.0001    0    90    0.0    17.172    Fault 1
582    14.6147    13.2872    22.3391    18.0047    100    0.0001    0    90    0.0    17.172    Fault 1
583    14.6147    13.2872    22.3391    18.0047    100    0.0002    0    90    0.0    17.172    Fault 1
584    14.6147    13.2872    22.3391    18.0047    100    0.0001    0    90    0.0    17.172    Fault 1
585    14.6147    13.2872    22.3391    18.0047    100    0.0001    0    90    0.0    17.172    Fault 1
586    14.6147    13.2872    22.3391    18.0047    100    0.0000    0    90    0.0    17.172    Fault 1
587    14.6147    13.2872    22.3391    18.0047    100    0.0000    0    90    0.0    17.172    Fault 1
588    14.6147    13.2872    22.3391    18.0047    100    0.0001    0    90    0.0    17.172    Fault 1
589    14.6147    13.2872    22.3391    18.0047    100    0.0002    0    90    0.0    17.172    Fault 1
590    14.6147    13.2872    22.3391    18.0047    100    0.0002    0    90    0.0    17.172    Fault 1
591    14.6147    13.2872    22.3391    18.0047    100    0.0000    0    90    0.0    17.172    Fault 1
592    14.6147    13.2872    22.3391    18.0047    100    0.0003    0    90    0.0    17.172    Fault 1
593    14.6147    13.2872    22.3391    18.0047    100    0.0001    0    90    0.0    17.172    Fault 1
594    14.6147    13.2872    22.3391    18.0047    100    0.0002    0    90    0.0    17.172    Fault 1
595    14.6147    13.2872    22.3391    18.0047    100    0.0002    0    90    0.0    17.172    Fault 1
596    14.6147    13.2872    22.3391    18.0047    100    0.0001    0    90    0.0    17.172    Fault 1
597    14.6147    13.2872    22.3391    18.0047    100    0.0001    0    90    0.0    17.172    Fault 1
598    14.6147    13.2872    22.3391    18.0047    100    0.0001    0    90    0.0    17.172    Fault 1
599    14.6147    13.2872    22.3391    18.0047    100    0.0006    0    90    0.0    17.172    Fault 1
600    14.6147    13.2872    22.3391    18.0047    100    0.0003    0    90    0.0    17.172    Fault 1
601    14.6147    13.2872    22.3391    18.0047    100    0.0003    0    90    0.0    17.172    Fault 1
602    14.6147    13.2872    22.3391    18.0047    100    0.0005    0    90    0.0    17.172    Fault 1
603    14.6147    13.2872    22.3391    18.0047    100    0.0001    0    90    0.0    17.172    Fault 1
604    14.6147    13.2872    22.3391    18.0047    100    0.0000    0    90    0.0    17.172    Fault 1
605    14.6147    13.2872    22.3391    18.0047    100    0.0009    0    90    0.0    17.172    Fault 1
606    14.6147    13.2872    22.3391    18.0047    100    0.0003    0    90    0.0    17.172    Fault 1
607    14.6147    13.2872    22.3391    18.0047    100    0.0002    0    90    0.0    17.172    Fault 1
608    14.6147    13.2872    22.3391    18.0047    100    0.0005    0    90    0.0    17.172    Fault 1
609    14.6147    13.2872    22.3391    18.0047    100    0.0001    0    90    0.0    17.172    Fault 1
610    14.6147    13.2872    22.3391    18.0047    100    0.0004    0    90    0.0    17.172    Fault 1
611    14.6147    13.2872    22.3391    18.0047    100    0.0001    0    90    0.0    17.172    Fault 1
612    14.6147    13.2872    22.3391    18.0047    100    0.0003    0    90    0.0    17.172    Fault 1
613    14.6147    13.2872    22.3391    18.0047    100    0.0004    0    90    0.0    17.172    Fault 1
614    14.6147    13.2872    22.3391    18.0047    100    0.0002    0    90    0.0    17.172    Fault 1
615    14.6147    13.2872    22.3391    18.0047    100    0.0001    0    90    0.0    17.172    Fault 1
616    14.6147    13.2872    22.3391    18.0047    100    0.0001    0    90    0.0    17.172    Fault 1
617    14.6147    13.2872    22.3391    18.0047    100    0.0001    0    90    0.0    17.172    Fault 1
618    14.6147    13.2872    22.3391    18.0047    100    0.0003    0    90    0.0    17.172    Fault 1
619    14.6147    13.2872    22.3391    18.0047    100    0.0001    0    90    0.0    17.172    Fault 1
620    14.6147    13.2872    22.3391    18.0047    100    0.0003    0    90    0.0    17.172    Fault 1
621    14.6147    13.2872    22.3391    18.0047    100    0.0000    0    90    0.0    17.172    Fault 1
622    14.6147    13.2872    22.3391    18.0047    100    0.0001    0    90    0.0    17.172    Fault 1
623    14.6147    13.2872    22.3391    18.0047    100    0.0002    0    90    0.0    17.172    Fault 1
624    14.6147    13.2872    22.3391    18.0047    100    0.0001    0    90    0.0    17.172    Fault 1
625    14.6147    13.2872    22.3391    18.0047    100    0.0001    0    90    0.0    17.172    Fault 1
626    14.6147    13.2872    22.3391    18.0047    100    0.0000    0    90    0.0    17.172    Fault 1
627    14.6147    13.2872    22.3391    18.0047    100    0.0000    0    90    0.0    17.172    Fault 1
628    14.6147    13.2872    22.3391    18.0047    100    0.0001    0    90    0.0    17.172    Fault 1
629    14.6147    13.2872    22.3391    18.0047    100    0.0001    0    90    0.0    17.172    Fault 1
630    14.6147    13.2872    22.3391    18.0047    100    0.0001    0    90    0.0    17.172    Fault 1
631    14.6147    13.2872    22.3391    18.0047    100    0.0001    0    90    0.0    17.172    Fault 1
632    14.6147    13.2872    22.3391    18.0047    100    0.0003    0    90    0.0    17.172    Fault 1
633    14.6147    13.2872    22.3391    18.0047    100    0.0002    0    90    0.0    17.172    Fault 1
634    14.6147    13.2872    22.3391    18.0047    100    0.0002    0    90    0.0    17.172    Fault 1
635    14.6147    13.2872    22.3391    18.0047    100    0.0003    0    90    0.0    17.172    Fault 1
636    14.6147    13.2872    22.3391    18.0047    100    0.0001    0    90    0.0    17.172    Fault 1
637    14.6147    13.2872    22.3391    18.0047    100    0.0002    0    90    0.0    17.172    Fault 1
638    14.6147    13.2872    22.3391    18.0047    100    0.0003    0    90    0.0    17.172    Fault 1
639    14.6147    13.2872    22.3391    18.0047    100    0.0004    0    90    0.0    17.172    Fault 1
640    14.6147    13.2872    22.3391    18.0047    100    0.0002    0    90    0.0    17.172    Fault 1
641    14.6147    13.2872    22.3391    18.0047    100    0.0002    0    90    0.0    17.172    Fault 1
642    14.6147    13.2872    22.3391    18.0047    100    0.0003    0    90    0.0    17.172    Fault 1
643    14.6147    13.2872    22.3391    18.0047    100    0.0003    0    90    0.0    17.172    Fault 1
644    14.6147    13.2872    22.3391    18.0047    100    0.0001    0    90    0.0    17.172    Fault 1
645    14.6147    13.2872    22.3391    18.0047    100    0.0007    0    90    0.0    17.172    Fault 1
646    14.6147    13.2872    22.3391    18.0047    100    0.0006    0    90    0.0    17.172    Fault 1
647    14.6147    13.2872    22.3391    18.0047    100    0.0003    0    90    0.0    17.172    Fault 1
648    14.6147    13.2872    22.3391    18.0047    100    0.0003    0    90    0.0    17.172    Fault 1
649    14.6147    13.2872    22.3391    18.0047    100    0.0001    0    90    0.0    17.172    Fault 1
650    14.6147    13.2872    22.3391    18.0047    100    0.0001    0    90    0.0    17.172    Fault 1
651    14.6147    13.2872    22.3391    18.0047    100    0.0003    0    90    0.0    17.172    Fault 1
652    14.6147    13.2872    22.3391    18.0047    100    0.0001    0    90    0.0    17.172    Fault 1
653    14.6147    13.2872    22.3391    18.0047    100    0.0001    0    90    0.0    17.172    Fault 1
654    14.6147    13.2872    22.3391    18.0047    100    0.0003    0    90    0.0    17.172    Fault 1
655    14.6147    13.2872    22.3391    18.0047    100    0.0002    0    90    0.0    17.172    Fault 1
656    14.6147    13.2872    22.3391    18.0047    100    0.0002    0    90    0.0    17.172    Fault 1
657    14.6147    13.2872    22.3391    18.0047    100    0.0000    0    90    0.0    17.172    Fault 1
658    14.6147    13.2872    22.3391    18.0047    100    0.0003    0    90    0.0    17.172    Fault 1
659    14.6147    13.2872    22.3391    18.0047    100    0.0001    0    90    0.0    17.172    Fault 1
660    14.6147    13.2872    22.3391    18.0047    100    0.0001    0    90    0.0    17.172    Fault 1
661    14.6147    13.2872    22.3391    18.0047    100    0.0001    0    90    0.0    17.172    Fault 1
662    14.6147    13.2872    22.3391    18.0047    100    0.0002    0    90    0.0    17.172    Fault 1
663    14.6147    13.2872    22.3391    18.0047    100    0.0001    0    90    0.0    17.172    Fault 1
664    14.6147    13.2872    22.3391    18.0047    100    0.0004    0    90    0.0    17.172    Fault 1
665    14.6147    13.2872    22.3391    18.0047    100    0.0001    0    90    0.0    17.172    Fault 1
666    14.6147    13.2872    22.3391    18.0047    100    0.0001    0    90    0.0    17.172    Fault 1
667    14.6147    13.2872    22.3391    18.0047    100    0.0002    0    90    0.0    17.172    Fault 1
668    14.6147    13.2872    22.3391    18.0047    100    0.0002    0    90    0.0    17.172    Fault 1
669    14.6147    13.2872    22.3391    18.0047    100    0.0001    0    90    0.0    17.172    Fault 1
670    14.6147    13.2872    22.3391    18.0047    100    0.0001    0    90    0.0    17.172    Fault 1
671    14.6147    13.2872    22.3391    18.0047    100    0.0001    0    90    0.0    17.172    Fault 1
672    14.6147    13.2872    22.3391    18.0047    100    0.0001    0    90    0.0    17.172    Fault 1
673    14.6147    13.2872    22.3391    18.0047    100    0.0003    0    90    0.0    17.172    Fault 1
674    14.6147    13.2872    22.3391    18.0047    100    0.0001    0    90    0.0    17.172    Fault 1
675    14.6147    13.2872    22.3391    18.0047    100    0.0001    0    90    0.0    17.172    Fault 1
676    14.6147    13.2872    22.3391    18.0047    100    0.0001    0    90    0.0    17.172    Fault 1
677    14.6147    13.2872    22.3391    18.0047    100    0.0000    0    90    0.0    17.172    Fault 1
678    14.6147    13.2872    22.3391    18.0047    100    0.0001    0    90    0.0    17.172    Fault 1
679    14.6147    13.2872    22.3391    18.0047    100    0.0002    0    90    0.0    17.172    Fault 1
680    14.6147    13.2872    22.3391    18.0047    100    0.0002    0    90    0.0    17.172    Fault 1
681    14.6147    13.2872    22.3391    18.0047    100    0.0001    0    90    0.0    17.172    Fault 1
682    14.6147    13.2872    22.3391    18.0047    100    0.0002    0    90    0.0    17.172    Fault 1
683    14.6147    13.2872    22.3391    18.0047    100    0.0002    0    90    0.0    17.172    Fault 1
684    14.6147    13.2872    22.3391    18.0047    100    0.0002    0    90    0.0    17.172    Fault 1
685    14.6147    13.2872    22.3391    18.0047    100    0.0002    0    90    0.0    17.172    Fault 1
686    14.6147    13.2872    22.3391    18.0047    100    0.0004    0    90    0.0    17.172    Fault 1
687    14.6147    13.2872    22.3391    18.0047    100    0.0005    0    90    0.0    17.172    Fault 1
688    14.6147    13.2872    22.3391    18.0047    100    0.0001    0    90    0.0    17.172    Fault 1
689    14.6147    13.2872    22.3391    18.0047    100    0.0001    0    90    0.0    17.172    Fault 1
690    14.6147    13.2872    22.3391    18.0047    100    0.0003    0    90    0.0    17.172    Fault 1
691    14.6147    13.2872    22.3391    18.0047    100    0.0001    0    90    0.0    17.172    Fault 1
692    14.6147    13.2872    22.3391    18.0047    100    0.0002    0    90    0.0    17.172    Fault 1
693    14.6147    13.2872    22.3391    18.0047    100    0.0002    0    90    0.0    17.172    Fault 1
694    14.6147    13.2872    22.3391    18.0047    100    0.0001    0    90    0.0    17.172    Fault 1
695    14.6147    13.2872    22.3391    18.0047    100    0.0002    0    90    0.0    17.172    Fault 1
696    14.6147    13.2872    22.3391    18.0047    100    0.0001    0    90    0.0    17.172    Fault 1
697    14.6147    13.2872    22.3391    18.0047    100    0.0000    0    90    0.0    17.172    Fault 1
698    14.6147    13.2872    22.3391    18.0047    100    0.0001    0    90    0.0    17.172    Fault 1
699    14.6147    13.2872    22.3391    18.0047    100    0.0000    0    90    0.0    17.172    Fault 1
700    14.6147    13.2872    22.3391    18.0047    100    0.0001    0    90    0.0    17.172    Fault 1
701    14.6147    13.2872    22.3391    18.0047    100    0.0003    0    90    0.0    17.172    Fault 1
702    14.6147    13.2872    22.3391    18.0047    100    0.0002    0    90    0.0    17.172    Fault 1
703    14.6147    13.2872    22.3391    18.0047    100    0.0001    0    90    0.0    17.172    Fault 1
704    14.6147    13.2872    22.3391    18.0047    100    0.0003    0    90    0.0    17.172    Fault 1
705    14.6147    13.2872    22.3391    18.0047    100    0.0002    0    90    0.0    17.172    Fault 1
706    14.6147    13.2872    22.3391    18.0047    100    0.0001    0    90    0.0    17.172    Fault 1
707    14.6147    13.2872    22.3391    18.0047    100    0.0007    0    90    0.0    17.172    Fault 1
708    14.6147    13.2872    22.3391    18.0047    100    0.0001    0    90    0.0    17.172    Fault 1
709    14.6147    13.2872    22.3391    18.0047    100    0.0001    0    90    0.0    17.172    Fault 1
710    14.6147    13.2872    22.3391    18.0047    100    0.0003    0    90    0.0    17.172    Fault 1
711    14.6147    13.2872    22.3391    18.0047    100    0.0000    0    90    0.0    17.172    Fault 1
712    14.6147    13.2872    22.3391    18.0047    100    0.0001    0    90    0.0    17.172    Fault 1
713    14.6147    13.2872    22.3391    18.0047    100    0.0001    0    90    0.0    17.172    Fault 1
714    14.6147    13.2872    22.3391    18.0047    100    0.0001    0    90    0.0    17.172    Fault 1
715    14.6147    13.2872    22.3391    18.0047    100    0.0001    0    90    0.0    17.172    Fault 1
716    14.6147    13.2872    22.3391    18.0047    100    0.0000    0    90    0.0    17.172    Fault 1
717    14.6147    13.2872    22.3391    18.0047    100    0.0002    0    90    0.0    17.172    Fault 1
718    14.6147    13.2872    22.3391    18.0047    100    0.0003    0    90    0.0    17.172    Fault 1
719    14.6147    13.2872    22.3391    18.0047    100    0.0002    0    90    0.0    17.172    Fault 1
720    14.6147    13.2872    22.3391    18.0047    100    0.0001    0    90    0.0    17.172    Fault 1
721    14.6147    13.2872    22.3391    18.0047    100    0.0001    0    90    0.0    17.172    Fault 1
722    14.6147    13.2872    22.3391    18.0047    100    0.0001    0    90    0.0    17.172    Fault 1
723    14.6147    13.2872    22.3391    18.0047    100    0.0001    0    90    0.0    17.172    Fault 1
724    14.6147    13.2872    22.3391    18.0047    100    0.0007    0    90    0.0    17.172    Fault 1
725    14.6147    13.2872    22.3391    18.0047    100    0.0005    0    90    0.0    17.172    Fault 1
726    14.6147    13.2872    22.3391    18.0047    100    0.0004    0    90    0.0    17.172    Fault 1
727    14.6147    13.2872    22.3391    18.0047    100    0.0001    0    90    0.0    17.172    Fault 1
728    14.6147    13.2872    22.3391    18.0047    100    0.0002    0    90    0.0    17.172    Fault 1
729    14.6147    13.2872    22.3391    18.0047    100    0.0004    0    90    0.0    17.172    Fault 1
730    14.6147    13.2872    22.3391    18.0047    100    0.0003    0    90    0.0    17.172    Fault 1
731    14.6147    13.2872    22.3391    18.0047    100    0.0002    0    90    0.0    17.172    Fault 1
732    14.6147    13.2872    22.3391    18.0047    100    0.0001    0    90    0.0    17.172    Fault 1
733    14.6147    13.2872    22.3391    18.0047    100    0.0003    0    90    0.0    17.172    Fault 1
734    14.6147    13.2872    22.3391    18.0047    100    0.0001    0    90    0.0    17.172    Fault 1
735    14.6147    13.2872    22.3391    18.0047    100    0.0000    0    90    0.0    17.172    Fault 1
736    14.6147    13.2872    22.3391    18.0047    100    0.0003    0    90    0.0    17.172    Fault 1
737    14.6147    13.2872    22.3391    18.0047    100    0.0002    0    90    0.0    17.172    Fault 1
738    14.6147    13.2872    22.3391    18.0047    100    0.0002    0    90    0.0    17.172    Fault 1
739    14.6147    13.2872    22.3391    18.0047    100    0.0003    0    90    0.0    17.172    Fault 1
740    14.6147    13.2872    22.3391    18.0047    100    0.0001    0    90    0.0    17.172    Fault 1
741    14.6147    13.2872    22.3391    18.0047    100    0.0002    0    90    0.0    17.172    Fault 1
742    14.6147    13.2872    22.3391    18.0047    100    0.0001    0    90    0.0    17.172    Fault 1
743    14.6147    13.2872    22.3391    18.0047    100    0.0005    0    90    0.0    17.172    Fault 1
744    14.6147    13.2872    22.3391    18.0047    100    0.0004    0    90    0.0    17.172    Fault 1
745    14.6147    13.2872    22.3391    18.0047    100    0.0002    0    90    0.0    17.172    Fault 1
746    14.6147    13.2872    22.3391    18.0047    100    0.0002    0    90    0.0    17.172    Fault 1
747    14.6147    13.2872    22.3391    18.0047    100    0.0004    0    90    0.0    17.172    Fault 1
748    14.6147    13.2872    22.3391    18.0047    100    0.0007    0    90    0.0    17.172    Fault 1
749    14.6147    13.2872    22.3391    18.0047    100    0.0001    0    90    0.0    17.172    Fault 1
750    14.6147    13.2872    22.3391    18.0047    100    0.0000    0    90    0.0    17.172    Fault 1
751    14.6147    13.2872    22.3391    18.0047    100    0.0000    0    90    0.0    17.172    Fault 1
752    14.6147    13.2872    22.3391    18.0047    100    0.0001    0    90    0.0    17.172    Fault 1
753    14.6147    13.2872    22.3391    18.0047    100    0.0001    0    90    0.0    17.172    Fault 1
754    14.6147    13.2872    22.3391    18.0047    100    0.0000    0    90    0.0    17.172    Fault 1
755    14.6147    13.2872    22.3391    18.0047    100    0.0002    0    90    0.0    17.172    Fault 1
756    14.6147    13.2872    22.3391    18.0047    100    0.0001    0    90    0.0    17.172    Fault 1
757    14.6147    13.2872    22.3391    18.0047    100    0.0002    0    90    0.0    17.172    Fault 1
758    14.6147    13.2872    22.3391    18.0047    100    0.0002    0    90    0.0    17.172    Fault 1
759    14.6147    13.2872    22.3391    18.0047    100    0.0004    0    90    0.0    17.172    Fault 1
760    14.6147    13.2872    22.3391    18.0047    100    0.0002    0    90    0.0    17.172    Fault 1
761    14.6147    13.2872    22.3391    18.0047    100    0.0001    0    90    0.0    17.172    Fault 1
762    14.6147    13.2872    22.3391    18.0047    100    0.0005    0    90    0.0    17.172    Fault 1
763    14.6147    13.2872    22.3391    18.0047    100    0.0005    0    90    0.0    17.172    Fault 1
764    14.6147    13.2872    22.3391    18.0047    100    0.0006    0    90    0.0    17.172    Fault 1
765    14.6147    13.2872    22.3391    18.0047    100    0.0001    0    90    0.0    17.172    Fault 1
766    14.6147    13.2872    22.3391    18.0047    100    0.0004    0    90    0.0    17.172    Fault 1
767    14.6147    13.2872    22.3391    18.0047    100    0.0003    0    90    0.0    17.172    Fault 1
768    14.6147    13.2872    22.3391    18.0047    100    0.0001    0    90    0.0    17.172    Fault 1
769    14.6147    13.2872    22.3391    18.0047    100    0.0009    0    90    0.0    17.172    Fault 1
770    14.6147    13.2872    22.3391    18.0047    100    0.0006    0    90    0.0    17.172    Fault 1
771    14.6147    13.2872    22.3391    18.0047    100    0.0001    0    90    0.0    17.172    Fault 1
772    14.6147    13.2872    22.3391    18.0047    100    0.0005    0    90    0.0    17.172    Fault 1
773    14.6147    13.2872    22.3391    18.0047    100    0.0000    0    90    0.0    17.172    Fault 1
774    14.6147    13.2872    22.3391    18.0047    100    0.0001    0    90    0.0    17.172    Fault 1
775    14.6147    13.2872    22.3391    18.0047    100    0.0003    0    90    0.0    17.172    Fault 1
776    14.6147    13.2872    22.3391    18.0047    100    0.0001    0    90    0.0    17.172    Fault 1
777    14.6147    13.2872    22.3391    18.0047    100    0.0001    0    90    0.0    17.172    Fault 1
778    14.6147    13.2872    22.3391    18.0047    100    0.0019    0    90    0.0    17.172    Fault 1
779    14.6147    13.2872    22.3391    18.0047    100    0.0068    0    90    0.0    17.172    Fault 1
780    14.6147    13.2872    22.3391    18.0047    100    0.0006    0    90    0.0    17.172    Fault 1
781    14.6147    13.2872    22.3391    18.0047    100    0.0003    0    90    0.0    17.172    Fault 1
782    14.6147    13.2872    22.3391    18.0047    100    0.0001    0    90    0.0    17.172    Fault 1
783    14.6147    13.2872    22.3391    18.0047    100    0.0002    0    90    0.0    17.172    Fault 1
784    14.6147    13.2872    22.3391    18.0047    100    0.0001    0    90    0.0    17.172    Fault 1
785    14.6147    13.2872    22.3391    18.0047    100    0.0001    0    90    0.0    17.172    Fault 1
786    14.6147    13.2872    22.3391    18.0047    100    0.0001    0    90    0.0    17.172    Fault 1
787    14.6147    13.2872    22.3391    18.0047    100    0.0000    0    90    0.0    17.172    Fault 1
788    14.6147    13.2872    22.3391    18.0047    100    0.0001    0    90    0.0    17.172    Fault 1
789    14.6147    13.2872    22.3391    18.0047    100    0.0004    0    90    0.0    17.172    Fault 1
790    14.6147    13.2872    22.3391    18.0047    100    0.0002    0    90    0.0    17.172    Fault 1
791    14.6147    13.2872    22.3391    18.0047    100    0.0001    0    90    0.0    17.172    Fault 1
792    14.6147    13.2872    22.3391    18.0047    100    0.0000    0    90    0.0    17.172    Fault 1
793    14.6147    13.2872    22.3391    18.0047    100    0.0001    0    90    0.0    17.172    Fault 1
794    14.6147    13.2872    22.3391    18.0047    100    0.0002    0    90    0.0    17.172    Fault 1
795    26.9149    10.5532    10.6150    14.6096    100    0.0000    0    90    0.0    17.172    Fault 2
795    14.3545    12.2452    15.2517    21.1508    100    0.0000    0    90    0.0    17.172    Fault 3
795    9.8688    6.6792    13.4574    13.3584    100    0.0000    0    90    0.0    17.172    Fault 4

    Grid Parameters
  1  ----------------------------  Start-x =        0.0000000
  2  ----------------------------  Start-y =        0.0000000
  3  --------------------------   Finish-x =       31.3048542
  4  --------------------------   Finish-y =       33.3584780
  5  ------------------------  x-increment =        0.8944244
  6  ------------------------  y-increment =        1.1119493
     Size Parameters
  1  --------------------------  Plot size =        2.0000000
  2  --------------  Shade/Color increment =        1.0000000
  3  ------  Exaggeration for disp.& dist. =    10000.0000000
  
     Cross section default
  1  ----------------------------  Start-x =      -16.0000000
  2  ----------------------------  Start-y =      -16.0000000
  3  --------------------------   Finish-x =       18.0000000
  4  --------------------------   Finish-y =       26.0000000
  5  ------------------  Distant-increment =        1.0000000
  6  ----------------------------  Z-depth =       6.0000000
  7  ------------------------  Z-increment =        1.0000000
     Map info
  1  ---------------------------- min. lon =      -97.1000000
  2  ---------------------------- max. lon =      -96.7500000
  3  ---------------------------- zero lon =      -97.1000000
  4  ---------------------------- min. lat =       36.3000000
  5  ---------------------------- max. lat =       36.6000000
  6  ---------------------------- zero lat =       36.3000000

